
Starting CP-SAT solver v9.15.6755
Parameters: random_seed: 2026073292 max_time_in_seconds: 2500 log_search_progress: true cp_model_presolve: true linearization_level: 2 num_search_workers: 4 cp_model_probing_level: 2 symmetry_level: 2

Initial satisfaction model '': (model_fingerprint: 0x683e5d6d9bd5f24f)
#Variables: 724 (608 primary variables)
  - 724 Booleans in [0,1]
#kBoolAnd: 110 (#enforced: 110) (#literals: 330)
#kBoolOr: 110 (#enforced: 110) (#literals: 220)
#kExactlyOne: 87 (#literals: 261)
#kLinear1: 32 (#enforced: 6)
#kLinear2: 336 (#enforced: 336) (#complex_domain: 110)
#kLinear3: 1'600 (#enforced: 6)
#kLinearN: 1'132 (#enforced: 243) (#terms: 9'111)

Starting presolve at 0.00s
  6.70e-04s  0.00e+00d  [DetectDominanceRelations] 
  8.66e-03s  0.00e+00d  [PresolveToFixPoint] #num_loops=3 #num_dual_strengthening=1 
  3.77e-05s  0.00e+00d  [ExtractEncodingFromLinear] #potential_supersets=86 
  2.95e-04s  0.00e+00d  [DetectDuplicateColumns] 
  9.94e-05s  0.00e+00d  [DetectDuplicateConstraints] #duplicates=5 
[Symmetry] Graph for symmetry has 4'868 nodes and 15'708 arcs.
[Symmetry] Symmetry computation done. time: 0.00125548 dtime: 0.00181388
[SAT presolve] num removable Booleans: 220 / 626
[SAT presolve] num trivial clauses: 0
[SAT presolve] [0s] clauses:2'732 literals:7'430 vars:506 one_side_vars:66 simple_definition:1 singleton_clauses:0
[SAT presolve] [0.000233426s] clauses:2'731 literals:7'423 vars:506 one_side_vars:66 simple_definition:1 singleton_clauses:0
[SAT presolve] [0.000680922s] clauses:2'247 literals:6'594 vars:381 one_side_vars:71 simple_definition:71 singleton_clauses:0
  1.18e-04s  0.00e+00d  [DetectDuplicateConstraintsWithDifferentEnforcements] #without_enforcements=4 
  5.42e-03s  2.25e-03d  [Probe] #probed=1'305 #fixed_bools=11 #equiv=7 #new_binary_clauses=945 
  4.89e-04s  2.94e-04d  [MaxClique] Merged 587 constraints with 1'313 literals into 505 constraints with 1'179 literals
  8.44e-04s  0.00e+00d  [DetectDominanceRelations] 
  3.08e-03s  0.00e+00d  [PresolveToFixPoint] #num_loops=1 #num_dual_strengthening=1 
  1.22e-03s  0.00e+00d  [ProcessAtMostOneAndLinear] 
  1.03e-04s  0.00e+00d  [DetectDuplicateConstraints] #duplicates=6 
  9.61e-05s  0.00e+00d  [DetectDuplicateConstraintsWithDifferentEnforcements] 
  2.41e-03s  8.98e-05d  [DetectDominatedLinearConstraints] #relevant_constraints=828 #num_inclusions=450 #num_redundant=7 
  1.20e-04s  0.00e+00d  [DetectDifferentVariables] 
  7.28e-04s  8.31e-05d  [ProcessSetPPC] #relevant_constraints=3'000 #num_inclusions=83 
  2.69e-04s  3.36e-05d  [TransformClausesToExactlyOne] #num_amos=509 #num_clauses=1'672 #num_checked=1'672 
  5.30e-05s  0.00e+00d  [DetectEncodedComplexDomains] 
  3.57e-05s  0.00e+00d  [FindAlmostIdenticalLinearConstraints] 
  9.27e-04s  1.42e-03d  [FindBigAtMostOneAndLinearOverlap] 
  1.35e-03s  1.05e-03d  [FindBigVerticalLinearOverlap] #blocks=5 #saved_nz=209 
  3.33e-04s  5.56e-04d  [FindBigHorizontalLinearOverlap] #linears=456 
  3.17e-04s  2.69e-05d  [MergeClauses] #num_collisions=19 #num_merges=19 #num_saved_literals=95 
  8.47e-04s  0.00e+00d  [DetectDominanceRelations] 
  3.03e-03s  0.00e+00d  [PresolveToFixPoint] #num_loops=2 #num_dual_strengthening=1 
  8.14e-04s  0.00e+00d  [DetectDominanceRelations] 
  2.95e-03s  0.00e+00d  [PresolveToFixPoint] #num_loops=1 #num_dual_strengthening=1 
  2.46e-04s  0.00e+00d  [DetectDuplicateColumns] 
  9.19e-05s  0.00e+00d  [DetectDuplicateConstraints] 
[Symmetry] Graph for symmetry has 4'300 nodes and 13'473 arcs.
[Symmetry] Symmetry computation done. time: 0.000907525 dtime: 0.00139476
[SAT presolve] num removable Booleans: 94 / 482
[SAT presolve] num trivial clauses: 0
[SAT presolve] [0s] clauses:2'131 literals:6'306 vars:453 one_side_vars:149 simple_definition:82 singleton_clauses:0
[SAT presolve] [0.000207217s] clauses:2'131 literals:6'136 vars:453 one_side_vars:194 simple_definition:65 singleton_clauses:0
[SAT presolve] [0.00030504s] clauses:2'121 literals:6'128 vars:449 one_side_vars:197 simple_definition:53 singleton_clauses:0
  1.55e-04s  0.00e+00d  [DetectDuplicateConstraintsWithDifferentEnforcements] #without_enforcements=1 
  4.69e-03s  1.81e-03d  [Probe] #probed=1'294 #new_binary_clauses=612 
  4.22e-04s  3.13e-04d  [MaxClique] Merged 503 constraints with 1'113 literals into 496 constraints with 1'111 literals
  8.36e-04s  0.00e+00d  [DetectDominanceRelations] 
  3.02e-03s  0.00e+00d  [PresolveToFixPoint] #num_loops=1 #num_dual_strengthening=1 
  1.12e-03s  0.00e+00d  [ProcessAtMostOneAndLinear] 
  1.41e-04s  0.00e+00d  [DetectDuplicateConstraints] 
  9.98e-05s  0.00e+00d  [DetectDuplicateConstraintsWithDifferentEnforcements] 
  6.77e-04s  5.47e-05d  [DetectDominatedLinearConstraints] #relevant_constraints=812 #num_inclusions=293 #num_redundant=1 
  1.42e-04s  0.00e+00d  [DetectDifferentVariables] 
  7.18e-04s  7.24e-05d  [ProcessSetPPC] #relevant_constraints=3'025 #num_inclusions=87 
  3.03e-04s  3.29e-05d  [TransformClausesToExactlyOne] #num_amos=497 #num_clauses=1'665 #num_checked=1'665 
  4.71e-05s  0.00e+00d  [DetectEncodedComplexDomains] 
  4.03e-05s  0.00e+00d  [FindAlmostIdenticalLinearConstraints] 
  8.19e-04s  1.11e-03d  [FindBigAtMostOneAndLinearOverlap] 
  1.21e-03s  9.52e-04d  [FindBigVerticalLinearOverlap] #blocks=2 #saved_nz=68 
  1.89e-04s  2.65e-04d  [FindBigHorizontalLinearOverlap] #linears=452 
  3.25e-04s  2.60e-05d  [MergeClauses] #num_collisions=72 #num_merges=72 #num_saved_literals=210 
  8.55e-04s  0.00e+00d  [DetectDominanceRelations] 
  3.03e-03s  0.00e+00d  [PresolveToFixPoint] #num_loops=2 #num_dual_strengthening=1 
  8.51e-04s  0.00e+00d  [DetectDominanceRelations] 
  2.99e-03s  0.00e+00d  [PresolveToFixPoint] #num_loops=1 #num_dual_strengthening=1 
  2.04e-04s  0.00e+00d  [DetectDuplicateColumns] 
  1.01e-04s  0.00e+00d  [DetectDuplicateConstraints] 
[Symmetry] Graph for symmetry has 4'230 nodes and 13'042 arcs.
[Symmetry] Symmetry computation done. time: 0.000932021 dtime: 0.00138976
[SAT presolve] num removable Booleans: 90 / 478
[SAT presolve] num trivial clauses: 0
[SAT presolve] [0s] clauses:2'110 literals:6'098 vars:449 one_side_vars:198 simple_definition:54 singleton_clauses:0
[SAT presolve] [0.000204081s] clauses:2'110 literals:6'098 vars:449 one_side_vars:198 simple_definition:54 singleton_clauses:0
[SAT presolve] [0.000267981s] clauses:2'110 literals:6'098 vars:449 one_side_vars:198 simple_definition:54 singleton_clauses:0
  1.05e-04s  0.00e+00d  [DetectDuplicateConstraintsWithDifferentEnforcements] 
  4.67e-03s  1.79e-03d  [Probe] #probed=1'294 #new_binary_clauses=611 
  4.14e-04s  3.07e-04d  [MaxClique] Merged 495 constraints with 1'097 literals into 494 constraints with 1'096 literals
  8.55e-04s  0.00e+00d  [DetectDominanceRelations] 
  3.04e-03s  0.00e+00d  [PresolveToFixPoint] #num_loops=1 #num_dual_strengthening=1 
  1.09e-03s  0.00e+00d  [ProcessAtMostOneAndLinear] 
  1.65e-04s  0.00e+00d  [DetectDuplicateConstraints] 
  1.06e-04s  0.00e+00d  [DetectDuplicateConstraintsWithDifferentEnforcements] 
  6.97e-04s  5.55e-05d  [DetectDominatedLinearConstraints] #relevant_constraints=808 #num_inclusions=305 
  1.41e-04s  0.00e+00d  [DetectDifferentVariables] 
  7.09e-04s  7.11e-05d  [ProcessSetPPC] #relevant_constraints=3'019 #num_inclusions=80 
  2.94e-04s  3.29e-05d  [TransformClausesToExactlyOne] #num_amos=494 #num_clauses=1'665 #num_checked=1'665 
  7.19e-05s  0.00e+00d  [DetectEncodedComplexDomains] 
  5.33e-05s  0.00e+00d  [FindAlmostIdenticalLinearConstraints] 
  8.02e-04s  1.05e-03d  [FindBigAtMostOneAndLinearOverlap] 
  1.17e-03s  9.15e-04d  [FindBigVerticalLinearOverlap] 
  1.95e-04s  2.65e-04d  [FindBigHorizontalLinearOverlap] #linears=452 
  3.33e-04s  2.60e-05d  [MergeClauses] #num_collisions=72 #num_merges=72 #num_saved_literals=210 
  8.68e-04s  0.00e+00d  [DetectDominanceRelations] 
  3.08e-03s  0.00e+00d  [PresolveToFixPoint] #num_loops=1 #num_dual_strengthening=1 
  4.83e-05s  0.00e+00d  [MergeNoOverlap] 
  5.21e-05s  0.00e+00d  [MergeNoOverlap2D] 

Presolve summary:
  - 44 affine relations were detected.
  - rule 'TODO dual: only one blocking constraint?' was applied 870 times.
  - rule 'TODO dual: tighten at most one' was applied 8 times.
  - rule 'TODO linear inclusion: superset is equality' was applied 119 times.
  - rule 'affine: new relation' was applied 44 times.
  - rule 'at_most_one: removed literals' was applied 51 times.
  - rule 'at_most_one: size one' was applied 50 times.
  - rule 'at_most_one: transformed into max clique' was applied 3 times.
  - rule 'bool_or: implications' was applied 63 times.
  - rule 'bool_or: only one literal' was applied 12 times.
  - rule 'bool_or: removed enforcement literal' was applied 557 times.
  - rule 'deductions: 862 stored' was applied 1 time.
  - rule 'duplicate: merged rhs of linear constraint' was applied 10 times.
  - rule 'duplicate: removed constraint' was applied 11 times.
  - rule 'duplicate: removed enforced constraint' was applied 5 times.
  - rule 'enforcement: false literal' was applied 34 times.
  - rule 'enforcement: true literal' was applied 8 times.
  - rule 'exactly_one: removed literals' was applied 33 times.
  - rule 'exactly_one: satisfied' was applied 3 times.
  - rule 'exactly_one: singleton' was applied 3 times.
  - rule 'exactly_one: size two' was applied 30 times.
  - rule 'exactly_one: x and not(x)' was applied 5 times.
  - rule 'incompatible linear: add implication' was applied 129 times.
  - rule 'linear + amo: empty after processing' was applied 6 times.
  - rule 'linear + amo: extracted enforcement literal' was applied 56 times.
  - rule 'linear inclusion: redundant containing constraint' was applied 3 times.
  - rule 'linear inclusion: redundant included constraint' was applied 3 times.
  - rule 'linear inclusion: sparsify superset' was applied 2 times.
  - rule 'linear matrix: common vertical rectangle' was applied 7 times.
  - rule 'linear1: always true' was applied 7 times.
  - rule 'linear1: x in domain' was applied 26 times.
  - rule 'linear2: convert ax + by != cte to clauses' was applied 258 times.
  - rule 'linear2: convert implied ax + by == cte to clauses' was applied 114 times.
  - rule 'linear2: implied ax + by = cte has only one solution' was applied 8 times.
  - rule 'linear: always true' was applied 416 times.
  - rule 'linear: empty' was applied 15 times.
  - rule 'linear: enforcement literal in expression' was applied 14 times.
  - rule 'linear: extracted at most one (max)' was applied 1 time.
  - rule 'linear: fixed or dup variables' was applied 893 times.
  - rule 'linear: negative clause' was applied 1'299 times.
  - rule 'linear: negative reified and' was applied 78 times.
  - rule 'linear: never in domain' was applied 6 times.
  - rule 'linear: positive at most one' was applied 34 times.
  - rule 'linear: reduced variable domains' was applied 8 times.
  - rule 'linear: remapped using affine relations' was applied 45 times.
  - rule 'presolve: 77 unused variables removed.' was applied 1 time.
  - rule 'presolve: iteration' was applied 3 times.
  - rule 'probing: bool_or reduced to implication' was applied 27 times.
  - rule 'probing: simplified clauses' was applied 11 times.
  - rule 'setppc: bool_or in at_most_one' was applied 7 times.
  - rule 'setppc: removed dominated constraints' was applied 88 times.
  - rule 'variables: both boolean and its negation fix the same variable' was applied 7 times.
  - rule 'variables: detect half reified value encoding' was applied 14 times.

Presolved satisfaction model '': (model_fingerprint: 0x1caa6beb813d7e3b)
#Variables: 478 (410 primary variables)
  - 478 Booleans in [0,1]
#kAtMostOne: 51 (#literals: 210)
#kBoolAnd: 262 (#enforced: 262) (#literals: 705)
#kBoolAndClauses: 72 (#enforced: 72 #multi: 72) (#literals: 354)
#kBoolOr: 1'521 (#literals: 4'644)
#kExactlyOne: 52 (#literals: 200)
#kLinearN: 808 (#enforced: 118) (#terms: 5'633)
[Symmetry] Graph for symmetry has 3'976 nodes and 13'039 arcs.
[Symmetry] Symmetry computation done. time: 0.000890123 dtime: 0.00137313

Preloading model.
#Model   0.09s var:478/478 constraints:2766/2766

Starting search at 0.09s with 4 workers.
3 full problem subsolvers: [default_lp, max_lp, no_lp]
1 first solution subsolver: [fj]
2 interleaved subsolvers: [feasibility_pump, rins/rens]
2 helper subsolvers: [neighborhood_helper, synchronization_agent]

#Model  43.25s var:477/478 constraints:2764/2766
#Model 268.63s var:476/478 constraints:2762/2766
#Model 761.34s var:475/478 constraints:2745/2766

Task timing                   n [     min,      max]      avg      dev     time         n [     min,      max]      avg      dev    dtime
        'default_lp':         1 [  41.67m,   41.67m]   41.67m   0.00ns   41.67m         2 [  2.10ms,   45.82m]   22.91m   22.91m   45.82m
  'feasibility_pump':     12411 [ 34.76us, 171.04ms]   1.30ms   1.55ms   16.16s     12409 [271.24us, 150.30ms] 283.33us   1.35ms    3.52s
                'fj':      8681 [111.32ms, 254.20ms] 142.97ms  10.66ms   20.68m      8681 [100.00ms, 100.11ms] 100.02ms  12.94us   14.47m
            'max_lp':         1 [  41.67m,   41.67m]   41.67m   0.00ns   41.67m         2 [ 87.43ms,   51.92m]   25.96m   25.96m   51.92m
             'no_lp':         1 [  41.67m,   41.67m]   41.67m   0.00ns   41.67m         2 [  1.63ms,    1.48h]   44.44m   44.44m    1.48h
         'rins/rens':     11868 [  1.46ms, 264.16ms] 104.58ms  41.12ms   20.69m     11865 [ 89.56us, 100.38ms]  66.41ms  38.71ms   13.13m

Search stats     Bools   Conflicts    Branches  Restarts  BacktrackToRoot   Backtrack     BoolPropag  IntegerPropag
  'default_lp':    478     231'463   8'856'990     1'467        1'467'402   2'039'260     95'166'753     94'130'159
      'max_lp':    478     178'416  10'228'531       998        1'690'627   2'251'540    112'753'941    113'214'881
       'no_lp':    478  22'954'873  31'737'522    76'877          654'012  23'535'926  1'852'397'601    365'096'688

SAT formula      Fixed  Equiv  Total  VarLeft  BinaryClauses  PermanentClauses  TemporaryClauses
  'default_lp':      3      2    478      473          2'480            55'552            13'665
      'max_lp':      3      2    478      473          2'480            55'887            11'727
       'no_lp':      3      2    478      473          2'480           156'000            12'437

SAT stats        ClassicMinim   LitRemoved  LitRemovedBinary   LitLearned  LitForgotten   Subsumed
  'default_lp':       202'258    2'492'839         1'631'795    7'947'552     5'418'532     72'358
      'max_lp':       150'330    1'849'999         1'135'527    5'254'172     3'757'362     38'561
       'no_lp':    20'469'611  365'459'821       175'075'527  600'214'991   496'562'923  5'355'288

Vivification       Clauses  Decisions  LitTrue  Subsumed  LitRemoved  DecisionReused  Conflicts
  'default_lp':  1'518'589  8'251'704        2    11'350     116'137         349'349        792
      'max_lp':  1'739'734  9'644'116        1    12'470     131'151         388'961        845
       'no_lp':    499'621  4'084'691        0    26'803     334'925         105'240        796

Clause deletion    at_true  l_and_not(l)  to_binary  sub_conflict  sub_extra  sub_decisions  sub_eager  sub_vivify  sub_probing  sub_inpro  blocked  eliminated   forgotten    promoted   conflicts
    'default_lp':      837             0          2        71'227        646          1'680      1'131      11'350          492      2'900        0           0     138'707     461'333     231'463
        'max_lp':      549             0          4        38'063        571            592        498      12'470          609      2'024        0           0     121'355     395'700     178'416
         'no_lp':    1'083             0          3     5'266'133     45'286        183'815     89'155      26'803        1'286     59'795        0           0  17'120'759  52'891'572  22'954'873

Lp stats         Component  Iterations  AddedCuts  OPTIMAL  DUAL_F.  DUAL_U.
  'default_lp':          1  33'031'835    107'786  349'288        1  191'188
      'max_lp':          1  14'884'802    123'774   57'041  174'176   39'498

Lp dimension        Final dimension of first component
  'default_lp':    261 rows, 341 columns, 4432 entries
      'max_lp':  1305 rows, 478 columns, 16836 entries

Lp debug         CutPropag  CutEqPropag   Adjust  Overflow        Bad  BadScaling
  'default_lp':          0          231  191'122         0  2'255'660           0
      'max_lp':          0           98   39'469         0  2'956'882           0

Lp pool          Constraints  Updates  Simplif  Merged  Shortened  Split  Strengthened        Cuts/Call
  'default_lp':       10'556   26'047        0       0        294      0             0  107'786/115'020
      'max_lp':       12'865   40'994        0       3         65      0         2'648  123'774/156'652

Lp Cut           default_lp   max_lp
         CG_FF:       1'146      181
          CG_K:         457       11
         CG_KL:         473        5
          CG_R:       1'254       97
        Clique:           -      139
      MIR_1_FF:         491    1'091
       MIR_1_K:         110       28
      MIR_1_KL:         339       70
       MIR_1_R:         500      597
     MIR_1_RLT:           -   14'743
      MIR_2_FF:         698    1'192
       MIR_2_K:         175      241
      MIR_2_KL:         309      157
       MIR_2_R:       1'375    1'199
      MIR_3_FF:         314      304
       MIR_3_K:          48       33
      MIR_3_KL:          91       27
       MIR_3_R:         971      404
      MIR_4_FF:         107       88
       MIR_4_K:          19       17
      MIR_4_KL:          18        9
       MIR_4_R:         850      331
      MIR_5_FF:          43       30
       MIR_5_K:          12        5
      MIR_5_KL:           5        -
       MIR_5_R:         663      309
      MIR_6_FF:          31       13
       MIR_6_K:           6        4
      MIR_6_KL:           2        -
       MIR_6_R:         462      287
  ZERO_HALF_FF:         632      776
   ZERO_HALF_K:          38        5
  ZERO_HALF_KL:          65       12
   ZERO_HALF_R:      96'082  101'369

LNS stats       Improv/Calls  Closed  Difficulty  TimeLimit
  'rins/rens':   11867/11867     50%    7.58e-01       0.10

LS stats                                    Batches  Restarts/Perturbs    LinMoves   GenMoves  CompoundMoves  Bactracks  WeightUpdates  ScoreComputed
                             'fj_restart':      616                126  17'843'979          0              0          0     18'780'040        207'183
                    'fj_restart_compound':      367                112           0  4'420'130        269'532  2'075'049          9'860     69'509'118
                'fj_restart_compound_obj':      392                108           0  4'771'083        270'265  2'250'202         10'543     74'168'992
            'fj_restart_compound_perturb':      338                106           0  4'058'759        251'787  1'903'259          9'059     63'936'855
        'fj_restart_compound_perturb_obj':      693                113           0  8'551'838        320'672  4'115'357         23'888    131'982'008
                       'fj_restart_decay':      435                115  16'262'844          0              0          0        700'316        797'728
              'fj_restart_decay_compound':      343                107           0  4'422'970        720'380  1'851'068          4'871     65'557'491
          'fj_restart_decay_compound_obj':      537                119           0  7'104'631      1'172'420  2'965'856          7'493    103'087'682
      'fj_restart_decay_compound_perturb':      337                128           0  4'231'314        697'922  1'766'423          4'867     64'302'150
  'fj_restart_decay_compound_perturb_obj':      454                135           0  5'883'287        970'789  2'455'888          6'466     86'933'451
                   'fj_restart_decay_obj':      591                136  22'106'064          0              0          0        951'701      1'084'158
               'fj_restart_decay_perturb':      406                103  15'178'666          0              0          0        653'393        745'489
           'fj_restart_decay_perturb_obj':      377                102  14'107'305          0              0          0        607'146        688'562
                         'fj_restart_obj':      884                120  25'806'490          0              0          0     26'939'062        239'975
                     'fj_restart_perturb':      560                136  16'735'279          0              0          0     16'755'395        206'522
                 'fj_restart_perturb_obj':    1'351                136  37'155'205          0              0          0     42'095'152        385'707

Solution repositories    Added  Queried  Synchro
    'alternative_path':      0        0        0
      'best_solutions':      0        0        0
   'fj solution hints':  1'894        0    1'894
        'lp solutions':  2'297   11'868    2'297
                'pump':      0        0

Improving bounds shared    Num  Sym
            'default_lp':    3    0

Clauses shared    #Exported  #Imported  #BinaryRead  #BinaryTotal
   'default_lp':      2'932     65'017          344           344
       'max_lp':      3'614     64'262          344           344
        'no_lp':     64'190      6'083          344           344

LRAT_status: NA
CpSolverResponse summary:
status: UNKNOWN
objective: NA
best_bound: NA
integers: 341
booleans: 478
conflicts: 22954873
branches: 31737522
propagations: 1852397601
integer_propagations: 365096688
restarts: 76877
lp_iterations: 0
walltime: 2500.03
usertime: 2500.03
deterministic_time: 12857.1
gap_integral: 0

{
  "board_size": 22,
  "parity_proved": 0,
  "target": 34,
  "child_id": 1192,
  "child_count": 2640,
  "partition": "unknown_pair_x_diag_plus_twos_x_diag_minus_twos",
  "build_seconds": 0.07796549797058105,
  "workers": 4,
  "requested_seed": 2026073292,
  "effective_seed": 2026073292,
  "main_diagonal_pair": [
    3,
    5
  ],
  "pair_index": 58,
  "diag_plus_twos": 16,
  "diag_minus_twos": 16,
  "pair_excess": 0,
  "residual_certificate_slack": 112,
  "analytic_minimum_line_defect": 24,
  "analytic_defect_details": {
    "row_costs": {
      "12": 6,
      "13": 3,
      "14": 0,
      "15": 0,
      "16": 0,
      "17": 0
    },
    "column_costs": {
      "12": 6,
      "13": 3,
      "14": 0,
      "15": 0,
      "16": 0,
      "17": 0
    },
    "plus_cost": 24,
    "minus_cost": 0,
    "row_column_minimum": 0
  },
  "maximal_line_constraints": 2455,
  "analytic_infeasible": false,
  "allowed_points": 242,
  "status": "UNKNOWN",
  "proof_method": "cp_sat_all_lines_with_certificate_profile_cuts",
  "elapsed_seconds": 2500.0305635929108,
  "branches": 31737522,
  "conflicts": 22954873
}
